645.57
0 64 23 69 40 66 32 22 59 29 58 27 24 54 72 3 55 67 20 45 2 50 48 10 35 73 46 53 39 36 37 5 41 52 16 18 47 26 38 44 33 70 56 9 14 30 11 61 68 15 71 8 6 31 7 62 34 28 43 12 1 65 42 60 57 4 74 13 25 49 19 51 17 21 63
